&BANDS
  outdir='.'
  prefix='calc'
  filband='LiO2_bands.dat'
/
